c random clauses
p cnf 10 8
-10 -9 -6 -4 -3 2 7 8 0
-10 -8 -5 -4 -3 1 6 9 0
-10 -8 -4 1 3 5 7 9 0
-10 -7 -6 -5 -4 -3 -2 8 0
-9 -8 -6 -4 1 2 3 5 0
-8 -7 -6 -5 -4 -2 9 10 0
-6 -5 -2 -1 3 8 9 10 0
-6 -2 -1 4 5 7 9 10 0
